\ENCODING=ISO-8859-1
\Problem name: ilog.cplex

Minimize
 obj1: 92689 x1 + 108711 x2 + 90124 x3 + 106921 x4 + 96146 x5 + 108809 x6
       + 92506 x7 + 97534 x8 + 106622 x9 + 102796 x10 + 92783 x11 + 107652 x12
       + 97494 x13 + 106851 x14 + 104343 x15 + 104784 x16 + 92468 x17
       + 91092 x18 + 109363 x19 + 102075 x20 + 90549 x21 + 102655 x22
       + 103234 x23 + 106706 x24 + 91069 x25 + 100095 x26 + 95876 x27
       + 101213 x28 + 98087 x29 + 105945 x30 + 109349 x31 + 98797 x32
       + 102547 x33 + 97889 x34 + 90560 x35 + 100112 x36 + 105303 x37
       + 103228 x38 + 92882 x39 + 106072 x40 + 94444 x41 + 96197 x42
       + 91123 x43 + 108899 x44 + 106299 x45 + 103175 x46 + 100607 x47
       + 91923 x48 + 101111 x49 + 96929 x50 + 92953 x51 + 97583 x52 + 91543 x53
       + 107799 x54 + 98730 x55 + 92626 x56 + 95042 x57 + 97065 x58
       + 100239 x59 + 109668 x60 + 95089 x61 + 95881 x62 + 90696 x63
       + 106953 x64 + 104672 x65 + 100741 x66 + 109052 x67 + 100105 x68
       + 100407 x69 + 107775 x70 + 92057 x71 + 109653 x72 + 94618 x73
       + 107399 x74 + 99643 x75 + 91053 x76 + 100806 x77 + 100804 x78
       + 108365 x79 + 99055 x80 + 104579 x81 + 106736 x82 + 96979 x83
       + 108928 x84 + 102560 x85 + 97162 x86 + 96314 x87 + 102329 x88
       + 92355 x89 + 101460 x90 + 103106 x91 + 102525 x92 + 92452 x93
       + 107828 x94 + 101033 x95 + 93074 x96 + 107362 x97 + 105340 x98
       + 106475 x99 + 99099 x100 + 90354 x101 + 90388 x102 + 101345 x103
       + 90918 x104 + 93806 x105 + 107201 x106 + 90852 x107 + 106075 x108
       + 95518 x109 + 103752 x110 + 90159 x111 + 97708 x112 + 108227 x113
       + 101521 x114 + 100642 x115 + 104701 x116 + 99143 x117 + 100442 x118
       + 103814 x119 + 102233 x120 + 90078 x121 + 100800 x122 + 102159 x123
       + 99206 x124 + 90433 x125 + 100272 x126 + 94160 x127 + 99795 x128
       + 97041 x129 + 91293 x130 + 109343 x131 + 102536 x132 + 103058 x133
       + 108217 x134 + 96597 x135 + 100508 x136 + 96332 x137 + 109542 x138
       + 100418 x139 + 98485 x140 + 107718 x141 + 91684 x142 + 108397 x143
       + 106163 x144 + 90513 x145 + 106050 x146 + 101429 x147 + 93673 x148
       + 97282 x149 + 90310 x150 + 106604 x151 + 101829 x152 + 104092 x153
       + 90545 x154 + 91773 x155 + 93201 x156 + 91580 x157 + 97394 x158
       + 105544 x159 + 94310 x160 + 107290 x161 + 106372 x162 + 96734 x163
       + 94131 x164 + 104361 x165 + 100186 x166 + 103327 x167 + 109575 x168
       + 97924 x169 + 99212 x170 + 102507 x171 + 104707 x172 + 102456 x173
       + 95178 x174 + 100582 x175 + 97239 x176 + 90846 x177 + 92704 x178
       + 94441 x179 + 103164 x180 + 98405 x181 + 109393 x182 + 108557 x183
       + 104180 x184 + 94951 x185 + 108408 x186 + 96215 x187 + 97237 x188
       + 98214 x189 + 98307 x190 + 93716 x191 + 96415 x192 + 92178 x193
       + 92811 x194 + 105466 x195 + 109339 x196 + 109413 x197 + 102572 x198
       + 102169 x199 + 90955 x200 + 104143 x201 + 100659 x202 + 100095 x203
       + 90628 x204 + 98283 x205 + 101624 x206 + 103983 x207 + 100808 x208
       + 92740 x209 + 95686 x210 + 92264 x211 + 107518 x212 + 109246 x213
       + 93387 x214 + 99118 x215 + 91991 x216 + 91604 x217 + 105450 x218
       + 104289 x219 + 107500 x220 + 109492 x221 + 107584 x222 + 98632 x223
       + 95750 x224 + 92790 x225 + 100642 x226 + 91058 x227 + 93156 x228
       + 99930 x229 + 92786 x230 + 100825 x231 + 108921 x232 + 109840 x233
       + 102231 x234 + 98058 x235 + 94030 x236 + 103821 x237 + 106639 x238
       + 94927 x239 + 103109 x240 + 99552 x241 + 109398 x242 + 103736 x243
       + 109879 x244 + 108407 x245 + 101797 x246 + 98180 x247 + 90826 x248
       + 101218 x249 + 107810 x250 + 100571 x251 + 90819 x252 + 102343 x253
       + 99664 x254 + 93884 x255 + 98042 x256 + 97237 x257 + 92721 x258
       + 102049 x259 + 90812 x260 + 99772 x261 + 91340 x262 + 109044 x263
       + 105007 x264 + 97844 x265 + 92887 x266 + 98980 x267 + 90443 x268
       + 104410 x269 + 104977 x270 + 94053 x271 + 102717 x272 + 94475 x273
       + 94042 x274 + 91035 x275 + 102819 x276 + 107709 x277 + 96920 x278
       + 96318 x279 + 103272 x280 + 101019 x281 + 91413 x282 + 94601 x283
       + 106572 x284 + 105779 x285 + 96602 x286 + 96919 x287 + 109411 x288
       + 100343 x289 + 99214 x290 + 99987 x291 + 94442 x292 + 90071 x293
       + 98451 x294 + 90739 x295 + 100286 x296 + 94298 x297 + 108413 x298
       + 107453 x299 + 90017 x300 + 108558 x301 + 100396 x302 + 109140 x303
       + 96488 x304 + 90199 x305 + 90741 x306 + 107390 x307 + 92126 x308
       + 108888 x309 + 103384 x310 + 99022 x311 + 107812 x312 + 95991 x313
       + 104366 x314 + 105030 x315 + 102029 x316 + 102903 x317 + 94897 x318
       + 103816 x319 + 102549 x320 + 99167 x321 + 97569 x322 + 90016 x323
       + 95527 x324 + 90723 x325 + 99403 x326 + 101628 x327 + 108013 x328
       + 97416 x329 + 109138 x330 + 93359 x331 + 96088 x332 + 104110 x333
       + 109642 x334 + 107080 x335 + 104579 x336 + 95523 x337 + 95404 x338
       + 93918 x339 + 93712 x340 + 101336 x341 + 99760 x342 + 96723 x343
       + 93080 x344 + 95188 x345 + 96866 x346 + 106518 x347 + 103946 x348
       + 108832 x349 + 109348 x350 + 102057 x351 + 107178 x352 + 101032 x353
       + 104188 x354 + 107682 x355 + 105986 x356 + 99710 x357 + 96572 x358
       + 101451 x359 + 100185 x360 + 91816 x361 + 104225 x362 + 103626 x363
       + 107318 x364 + 100757 x365 + 99493 x366 + 92140 x367 + 103782 x368
       + 103330 x369 + 92261 x370 + 102678 x371 + 109865 x372 + 96937 x373
       + 103493 x374 + 99239 x375 + 90298 x376 + 99406 x377 + 92921 x378
       + 95535 x379 + 103733 x380 + 92992 x381 + 93133 x382 + 94013 x383
       + 94672 x384 + 99870 x385 + 101288 x386 + 105229 x387 + 108883 x388
       + 108493 x389 + 105414 x390 + 95314 x391 + 92999 x392 + 98306 x393
       + 107453 x394 + 102707 x395 + 102028 x396 + 94101 x397 + 90963 x398
       + 104425 x399 + 92089 x400 + 100678 x401 + 107870 x402 + 96857 x403
       + 99952 x404 + 103503 x405 + 105660 x406 + 106378 x407 + 105786 x408
       + 91697 x409 + 104131 x410 + 101053 x411 + 101052 x412 + 105955 x413
       + 99076 x414 + 96279 x415 + 99550 x416 + 95900 x417 + 99226 x418
       + 94422 x419 + 96408 x420 + 97114 x421 + 105393 x422 + 106376 x423
       + 101052 x424 + 106738 x425 + 105005 x426 + 102903 x427 + 94250 x428
       + 108055 x429 + 91204 x430 + 90516 x431 + 95329 x432 + 106543 x433
       + 103409 x434 + 99078 x435 + 98852 x436 + 100099 x437 + 100209 x438
       + 107499 x439 + 106610 x440 + 101777 x441 + 109056 x442 + 91430 x443
       + 93360 x444 + 104995 x445 + 104572 x446 + 91106 x447 + 101438 x448
       + 92379 x449 + 100151 x450 + 94101 x451 + 102306 x452 + 91780 x453
       + 95662 x454 + 102941 x455 + 106503 x456 + 95984 x457 + 97848 x458
       + 93350 x459 + 92618 x460 + 106264 x461 + 99403 x462 + 105280 x463
       + 100542 x464 + 94139 x465 + 107723 x466 + 105975 x467 + 94636 x468
       + 100576 x469 + 94990 x470 + 101964 x471 + 108396 x472 + 107374 x473
       + 97484 x474 + 95189 x475 + 93756 x476 + 101569 x477 + 103955 x478
       + 97405 x479 + 95419 x480 + 93400 x481 + 91954 x482 + 101508 x483
       + 108790 x484 + 105438 x485 + 103945 x486 + 98672 x487 + 91367 x488
       + 95025 x489 + 102947 x490 + 107116 x491 + 91552 x492 + 90478 x493
       + 104084 x494 + 106874 x495 + 90624 x496 + 105859 x497 + 102296 x498
       + 96289 x499 + 103201 x500 + 105443 x501 + 96153 x502 + 98804 x503
       + 96225 x504 + 90082 x505 + 106485 x506 + 100493 x507 + 95572 x508
       + 105968 x509 + 103821 x510 + 108307 x511 + 92917 x512 + 104149 x513
       + 90969 x514 + 107176 x515 + 90590 x516 + 92636 x517 + 90097 x518
       + 97858 x519 + 107999 x520 + 101952 x521 + 97244 x522 + 96838 x523
       + 99616 x524 + 109769 x525 + 91454 x526 + 94583 x527 + 101552 x528
       + 100534 x529 + 100601 x530 + 99114 x531 + 91457 x532 + 91990 x533
       + 91412 x534 + 98131 x535 + 94748 x536 + 102059 x537 + 107379 x538
       + 94803 x539 + 99118 x540 + 108816 x541 + 92727 x542 + 95554 x543
       + 95821 x544 + 100371 x545 + 106135 x546 + 109851 x547 + 97800 x548
       + 92235 x549 + 104352 x550 + 97477 x551 + 100012 x552 + 92227 x553
       + 105803 x554 + 106958 x555 + 96782 x556 + 98749 x557 + 109302 x558
       + 108611 x559 + 102778 x560 + 104376 x561 + 94846 x562 + 94586 x563
       + 108308 x564 + 103761 x565 + 104496 x566 + 91078 x567 + 92478 x568
       + 101691 x569 + 104193 x570 + 109512 x571 + 109491 x572 + 91706 x573
       + 105175 x574 + 105852 x575 + 101553 x576 + 90853 x577 + 107105 x578
       + 90199 x579 + 105583 x580 + 91957 x581 + 94141 x582 + 92420 x583
       + 90331 x584 + 91197 x585 + 109843 x586 + 103825 x587 + 105546 x588
       + 105869 x589 + 97167 x590 + 99747 x591 + 105452 x592 + 94837 x593
       + 95751 x594 + 103387 x595 + 105081 x596 + 92518 x597 + 100283 x598
       + 97370 x599 + 181210 x600 + 400442 x601 + 425307 x602 + 437213 x603
       + 373438 x604 + 411153 x605 + 378063 x606 + 399934 x607 + 404663 x608
       + 439068 x609 + 397446 x610 + 437159 x611 + 433970 x612 + 374792 x613
       + 407666 x614 + 379489 x615 + 423107 x616 + 380020 x617 + 400981 x618
       + 361602 x619 + 400072 x620 + 384264 x621 + 406563 x622 + 428678 x623
       + 404874 x624 + 399679 x625 + 370940 x626 + 413816 x627 + 414105 x628
       + 413700 x629 + 427012 x630 + 422439 x631 + 407302 x632 + 393665 x633
       + 407473 x634 + 407924 x635 + 420660 x636 + 439541 x637 + 384789 x638
       + 438327 x639 + 383724 x640 + 430324 x641 + 373726 x642 + 377346 x643
       + 392267 x644 + 426650 x645 + 393726 x646 + 433325 x647 + 395649 x648
       + 416577 x649 + 417283 x650 + 368322 x651 + 389523 x652 + 403497 x653
       + 366784 x654 + 384957 x655 + 424825 x656 + 374544 x657 + 386101 x658
       + 421972 x659 + 187542 x660
Subject To
 c1:   x3 - x7 - x17 - x18 - x20 - x27 + x28 + x29 + x34 - x37 - x39 + x50
       + x54  = 0
 c2:   x63 - x67 - x77 - x78 - x80 - x87 + x88 + x89 + x94 - x97 - x99 + x110
       + x114  = 0
 c3:   x123 - x127 - x137 - x138 - x140 - x147 + x148 + x149 + x154 - x157
       - x159 + x170 + x174  = 0
 c4:   x183 - x187 - x197 - x198 - x200 - x207 + x208 + x209 + x214 - x217
       - x219 + x230 + x234  = 0
 c5:   x243 - x247 - x257 - x258 - x260 - x267 + x268 + x269 + x274 - x277
       - x279 + x290 + x294  = -1
 c6:   x303 - x307 - x317 - x318 - x320 - x327 + x328 + x329 + x334 - x337
       - x339 + x350 + x354  = 0
 c7:   x363 - x367 - x377 - x378 - x380 - x387 + x388 + x389 + x394 - x397
       - x399 + x410 + x414  = 0
 c8:   x423 - x427 - x437 - x438 - x440 - x447 + x448 + x449 + x454 - x457
       - x459 + x470 + x474  = -1
 c9:   x483 - x487 - x497 - x498 - x500 - x507 + x508 + x509 + x514 - x517
       - x519 + x530 + x534  = 0
 c10:  x543 - x547 - x557 - x558 - x560 - x567 + x568 + x569 + x574 - x577
       - x579 + x590 + x594  = 0
 c11:  x2 - x11 + x21 + x23 - x24 - x31 + x36 + x37 - x38 - x53 + x55 - x56
       - x57  = 0
 c12:  x62 - x71 + x81 + x83 - x84 - x91 + x96 + x97 - x98 - x113 + x115 - x116
       - x117  = 0
 c13:  x122 - x131 + x141 + x143 - x144 - x151 + x156 + x157 - x158 - x173
       + x175 - x176 - x177  = 0
 c14:  x182 - x191 + x201 + x203 - x204 - x211 + x216 + x217 - x218 - x233
       + x235 - x236 - x237  = 1
 c15:  x242 - x251 + x261 + x263 - x264 - x271 + x276 + x277 - x278 - x293
       + x295 - x296 - x297  = 0
 c16:  x302 - x311 + x321 + x323 - x324 - x331 + x336 + x337 - x338 - x353
       + x355 - x356 - x357  = 0
 c17:  x362 - x371 + x381 + x383 - x384 - x391 + x396 + x397 - x398 - x413
       + x415 - x416 - x417  = -1
 c18:  x422 - x431 + x441 + x443 - x444 - x451 + x456 + x457 - x458 - x473
       + x475 - x476 - x477  = 1
 c19:  x482 - x491 + x501 + x503 - x504 - x511 + x516 + x517 - x518 - x533
       + x535 - x536 - x537  = 0
 c20:  x542 - x551 + x561 + x563 - x564 - x571 + x576 + x577 - x578 - x593
       + x595 - x596 - x597  = 0
 c21:  - x2 - x13 - x14 + x22 + x31 + x40 + x41 - x42 - x43 + x46 + x48 - x58
        = 0
 c22:  - x62 - x73 - x74 + x82 + x91 + x100 + x101 - x102 - x103 + x106 + x108
       - x118  = 0
 c23:  - x122 - x133 - x134 + x142 + x151 + x160 + x161 - x162 - x163 + x166
       + x168 - x178  = 0
 c24:  - x182 - x193 - x194 + x202 + x211 + x220 + x221 - x222 - x223 + x226
       + x228 - x238  = -1
 c25:  - x242 - x253 - x254 + x262 + x271 + x280 + x281 - x282 - x283 + x286
       + x288 - x298  = 0
 c26:  - x302 - x313 - x314 + x322 + x331 + x340 + x341 - x342 - x343 + x346
       + x348 - x358  = 1
 c27:  - x362 - x373 - x374 + x382 + x391 + x400 + x401 - x402 - x403 + x406
       + x408 - x418  = 0
 c28:  - x422 - x433 - x434 + x442 + x451 + x460 + x461 - x462 - x463 + x466
       + x468 - x478  = 0
 c29:  - x482 - x493 - x494 + x502 + x511 + x520 + x521 - x522 - x523 + x526
       + x528 - x538  = 0
 c30:  - x542 - x553 - x554 + x562 + x571 + x580 + x581 - x582 - x583 + x586
       + x588 - x598  = 0
 c31:  - x5 + x12 + x15 + x19 - x21 - x22 + x24 + x32 - x33 + x39 + x47 - x59
        = 1
 c32:  - x65 + x72 + x75 + x79 - x81 - x82 + x84 + x92 - x93 + x99 + x107
       - x119  = 0
 c33:  - x125 + x132 + x135 + x139 - x141 - x142 + x144 + x152 - x153 + x159
       + x167 - x179  = 0
 c34:  - x185 + x192 + x195 + x199 - x201 - x202 + x204 + x212 - x213 + x219
       + x227 - x239  = 0
 c35:  - x245 + x252 + x255 + x259 - x261 - x262 + x264 + x272 - x273 + x279
       + x287 - x299  = 0
 c36:  - x305 + x312 + x315 + x319 - x321 - x322 + x324 + x332 - x333 + x339
       + x347 - x359  = 0
 c37:  - x365 + x372 + x375 + x379 - x381 - x382 + x384 + x392 - x393 + x399
       + x407 - x419  = 0
 c38:  - x425 + x432 + x435 + x439 - x441 - x442 + x444 + x452 - x453 + x459
       + x467 - x479  = 0
 c39:  - x485 + x492 + x495 + x499 - x501 - x502 + x504 + x512 - x513 + x519
       + x527 - x539  = -1
 c40:  - x545 + x552 + x555 + x559 - x561 - x562 + x564 + x572 - x573 + x579
       + x587 - x599  = 0
 c41:  - x3 - x9 + x10 + x13 - x15 + x20 - x23 - x25 - x26 + x30 - x41 + x52
       + x57  = 0
 c42:  - x63 - x69 + x70 + x73 - x75 + x80 - x83 - x85 - x86 + x90 - x101
       + x112 + x117  = 0
 c43:  - x123 - x129 + x130 + x133 - x135 + x140 - x143 - x145 - x146 + x150
       - x161 + x172 + x177  = -1
 c44:  - x183 - x189 + x190 + x193 - x195 + x200 - x203 - x205 - x206 + x210
       - x221 + x232 + x237  = 0
 c45:  - x243 - x249 + x250 + x253 - x255 + x260 - x263 - x265 - x266 + x270
       - x281 + x292 + x297  = 0
 c46:  - x303 - x309 + x310 + x313 - x315 + x320 - x323 - x325 - x326 + x330
       - x341 + x352 + x357  = 0
 c47:  - x363 - x369 + x370 + x373 - x375 + x380 - x383 - x385 - x386 + x390
       - x401 + x412 + x417  = 0
 c48:  - x423 - x429 + x430 + x433 - x435 + x440 - x443 - x445 - x446 + x450
       - x461 + x472 + x477  = 0
 c49:  - x483 - x489 + x490 + x493 - x495 + x500 - x503 - x505 - x506 + x510
       - x521 + x532 + x537  = 0
 c50:  - x543 - x549 + x550 + x553 - x555 + x560 - x563 - x565 - x566 + x570
       - x581 + x592 + x597  = 0
 c51:  - x4 - x6 - x10 + x14 + x18 - x32 - x34 - x48 + x51 - x55 + x56 - x60
        = 0
 c52:  - x64 - x66 - x70 + x74 + x78 - x92 - x94 - x108 + x111 - x115 + x116
       - x120  = 0
 c53:  - x124 - x126 - x130 + x134 + x138 - x152 - x154 - x168 + x171 - x175
       + x176 - x180  = 0
 c54:  - x184 - x186 - x190 + x194 + x198 - x212 - x214 - x228 + x231 - x235
       + x236 - x240  = 0
 c55:  - x244 - x246 - x250 + x254 + x258 - x272 - x274 - x288 + x291 - x295
       + x296 - x300  = 0
 c56:  - x304 - x306 - x310 + x314 + x318 - x332 - x334 - x348 + x351 - x355
       + x356 - x360  = -1
 c57:  - x364 - x366 - x370 + x374 + x378 - x392 - x394 - x408 + x411 - x415
       + x416 - x420  = 0
 c58:  - x424 - x426 - x430 + x434 + x438 - x452 - x454 - x468 + x471 - x475
       + x476 - x480  = 0
 c59:  - x484 - x486 - x490 + x494 + x498 - x512 - x514 - x528 + x531 - x535
       + x536 - x540  = 1
 c60:  - x544 - x546 - x550 + x554 + x558 - x572 - x574 - x588 + x591 - x595
       + x596 - x600  = 0
 c61:  x1 + x6 - x8 + x11 + x26 + x27 + x35 - x40 + x43 - x45 + x49 - x50 - x52
        = -1
 c62:  x61 + x66 - x68 + x71 + x86 + x87 + x95 - x100 + x103 - x105 + x109
       - x110 - x112  = 0
 c63:  x121 + x126 - x128 + x131 + x146 + x147 + x155 - x160 + x163 - x165
       + x169 - x170 - x172  = 0
 c64:  x181 + x186 - x188 + x191 + x206 + x207 + x215 - x220 + x223 - x225
       + x229 - x230 - x232  = 0
 c65:  x241 + x246 - x248 + x251 + x266 + x267 + x275 - x280 + x283 - x285
       + x289 - x290 - x292  = 0
 c66:  x301 + x306 - x308 + x311 + x326 + x327 + x335 - x340 + x343 - x345
       + x349 - x350 - x352  = 0
 c67:  x361 + x366 - x368 + x371 + x386 + x387 + x395 - x400 + x403 - x405
       + x409 - x410 - x412  = 0
 c68:  x421 + x426 - x428 + x431 + x446 + x447 + x455 - x460 + x463 - x465
       + x469 - x470 - x472  = 0
 c69:  x481 + x486 - x488 + x491 + x506 + x507 + x515 - x520 + x523 - x525
       + x529 - x530 - x532  = 0
 c70:  x541 + x546 - x548 + x551 + x566 + x567 + x575 - x580 + x583 - x585
       + x589 - x590 - x592  = 0
 c71:  - x1 + x9 - x12 - x28 - x44 - x46 - x51 + x58 + x59 + x60  = 0
 c72:  - x61 + x69 - x72 - x88 - x104 - x106 - x111 + x118 + x119 + x120  = 1
 c73:  - x121 + x129 - x132 - x148 - x164 - x166 - x171 + x178 + x179 + x180
        = 0
 c74:  - x181 + x189 - x192 - x208 - x224 - x226 - x231 + x238 + x239 + x240
        = 0
 c75:  - x241 + x249 - x252 - x268 - x284 - x286 - x291 + x298 + x299 + x300
        = 0
 c76:  - x301 + x309 - x312 - x328 - x344 - x346 - x351 + x358 + x359 + x360
        = 0
 c77:  - x361 + x369 - x372 - x388 - x404 - x406 - x411 + x418 + x419 + x420
        = 1
 c78:  - x421 + x429 - x432 - x448 - x464 - x466 - x471 + x478 + x479 + x480
        = 0
 c79:  - x481 + x489 - x492 - x508 - x524 - x526 - x531 + x538 + x539 + x540
        = 0
 c80:  - x541 + x549 - x552 - x568 - x584 - x586 - x591 + x598 + x599 + x600
        = 1
 c81:  x4 + x5 + x16 + x17 - x19 + x25 - x29 - x30 - x35 - x36 + x44 + x45
       + x53  = 0
 c82:  x64 + x65 + x76 + x77 - x79 + x85 - x89 - x90 - x95 - x96 + x104 + x105
       + x113  = -1
 c83:  x124 + x125 + x136 + x137 - x139 + x145 - x149 - x150 - x155 - x156
       + x164 + x165 + x173  = 0
 c84:  x184 + x185 + x196 + x197 - x199 + x205 - x209 - x210 - x215 - x216
       + x224 + x225 + x233  = 0
 c85:  x244 + x245 + x256 + x257 - x259 + x265 - x269 - x270 - x275 - x276
       + x284 + x285 + x293  = 0
 c86:  x304 + x305 + x316 + x317 - x319 + x325 - x329 - x330 - x335 - x336
       + x344 + x345 + x353  = 0
 c87:  x364 + x365 + x376 + x377 - x379 + x385 - x389 - x390 - x395 - x396
       + x404 + x405 + x413  = 0
 c88:  x424 + x425 + x436 + x437 - x439 + x445 - x449 - x450 - x455 - x456
       + x464 + x465 + x473  = 0
 c89:  x484 + x485 + x496 + x497 - x499 + x505 - x509 - x510 - x515 - x516
       + x524 + x525 + x533  = 0
 c90:  x544 + x545 + x556 + x557 - x559 + x565 - x569 - x570 - x575 - x576
       + x584 + x585 + x593  = 0
 c91:  x7 + x8 - x16 + x33 + x38 + x42 - x47 - x49 - x54  = 0
 c92:  x67 + x68 - x76 + x93 + x98 + x102 - x107 - x109 - x114  = 0
 c93:  x127 + x128 - x136 + x153 + x158 + x162 - x167 - x169 - x174  = 1
 c94:  x187 + x188 - x196 + x213 + x218 + x222 - x227 - x229 - x234  = 0
 c95:  x247 + x248 - x256 + x273 + x278 + x282 - x287 - x289 - x294  = 1
 c96:  x307 + x308 - x316 + x333 + x338 + x342 - x347 - x349 - x354  = 0
 c97:  x367 + x368 - x376 + x393 + x398 + x402 - x407 - x409 - x414  = 0
 c98:  x427 + x428 - x436 + x453 + x458 + x462 - x467 - x469 - x474  = 0
 c99:  x487 + x488 - x496 + x513 + x518 + x522 - x527 - x529 - x534  = 0
 c100: x547 + x548 - x556 + x573 + x578 + x582 - x587 - x589 - x594  = -1
 c101: 4 x1 + 4 x61 + 4 x121 + 4 x181 + 4 x241 + 4 x301 + 4 x361 + 4 x421
       + 4 x481 + 4 x541 - 20 x601 <= 0
 c102: 4 x2 + 4 x62 + 4 x122 + 4 x182 + 4 x242 + 4 x302 + 4 x362 + 4 x422
       + 4 x482 + 4 x542 - 21 x602 <= 0
 c103: 4 x3 + 4 x63 + 4 x123 + 4 x183 + 4 x243 + 4 x303 + 4 x363 + 4 x423
       + 4 x483 + 4 x543 - 19 x603 <= 0
 c104: 4 x4 + 4 x64 + 4 x124 + 4 x184 + 4 x244 + 4 x304 + 4 x364 + 4 x424
       + 4 x484 + 4 x544 - 21 x604 <= 0
 c105: 4 x5 + 4 x65 + 4 x125 + 4 x185 + 4 x245 + 4 x305 + 4 x365 + 4 x425
       + 4 x485 + 4 x545 - 21 x605 <= 0
 c106: 4 x6 + 4 x66 + 4 x126 + 4 x186 + 4 x246 + 4 x306 + 4 x366 + 4 x426
       + 4 x486 + 4 x546 - 21 x606 <= 0
 c107: 4 x7 + 4 x67 + 4 x127 + 4 x187 + 4 x247 + 4 x307 + 4 x367 + 4 x427
       + 4 x487 + 4 x547 - 20 x607 <= 0
 c108: 4 x8 + 4 x68 + 4 x128 + 4 x188 + 4 x248 + 4 x308 + 4 x368 + 4 x428
       + 4 x488 + 4 x548 - 22 x608 <= 0
 c109: 4 x9 + 4 x69 + 4 x129 + 4 x189 + 4 x249 + 4 x309 + 4 x369 + 4 x429
       + 4 x489 + 4 x549 - 19 x609 <= 0
 c110: 4 x10 + 4 x70 + 4 x130 + 4 x190 + 4 x250 + 4 x310 + 4 x370 + 4 x430
       + 4 x490 + 4 x550 - 21 x610 <= 0
 c111: 4 x11 + 4 x71 + 4 x131 + 4 x191 + 4 x251 + 4 x311 + 4 x371 + 4 x431
       + 4 x491 + 4 x551 - 20 x611 <= 0
 c112: 4 x12 + 4 x72 + 4 x132 + 4 x192 + 4 x252 + 4 x312 + 4 x372 + 4 x432
       + 4 x492 + 4 x552 - 21 x612 <= 0
 c113: 4 x13 + 4 x73 + 4 x133 + 4 x193 + 4 x253 + 4 x313 + 4 x373 + 4 x433
       + 4 x493 + 4 x553 - 18 x613 <= 0
 c114: 4 x14 + 4 x74 + 4 x134 + 4 x194 + 4 x254 + 4 x314 + 4 x374 + 4 x434
       + 4 x494 + 4 x554 - 21 x614 <= 0
 c115: 4 x15 + 4 x75 + 4 x135 + 4 x195 + 4 x255 + 4 x315 + 4 x375 + 4 x435
       + 4 x495 + 4 x555 - 20 x615 <= 0
 c116: 4 x16 + 4 x76 + 4 x136 + 4 x196 + 4 x256 + 4 x316 + 4 x376 + 4 x436
       + 4 x496 + 4 x556 - 18 x616 <= 0
 c117: 4 x17 + 4 x77 + 4 x137 + 4 x197 + 4 x257 + 4 x317 + 4 x377 + 4 x437
       + 4 x497 + 4 x557 - 20 x617 <= 0
 c118: 4 x18 + 4 x78 + 4 x138 + 4 x198 + 4 x258 + 4 x318 + 4 x378 + 4 x438
       + 4 x498 + 4 x558 - 19 x618 <= 0
 c119: 4 x19 + 4 x79 + 4 x139 + 4 x199 + 4 x259 + 4 x319 + 4 x379 + 4 x439
       + 4 x499 + 4 x559 - 22 x619 <= 0
 c120: 4 x20 + 4 x80 + 4 x140 + 4 x200 + 4 x260 + 4 x320 + 4 x380 + 4 x440
       + 4 x500 + 4 x560 - 19 x620 <= 0
 c121: 4 x21 + 4 x81 + 4 x141 + 4 x201 + 4 x261 + 4 x321 + 4 x381 + 4 x441
       + 4 x501 + 4 x561 - 18 x621 <= 0
 c122: 4 x22 + 4 x82 + 4 x142 + 4 x202 + 4 x262 + 4 x322 + 4 x382 + 4 x442
       + 4 x502 + 4 x562 - 19 x622 <= 0
 c123: 4 x23 + 4 x83 + 4 x143 + 4 x203 + 4 x263 + 4 x323 + 4 x383 + 4 x443
       + 4 x503 + 4 x563 - 19 x623 <= 0
 c124: 4 x24 + 4 x84 + 4 x144 + 4 x204 + 4 x264 + 4 x324 + 4 x384 + 4 x444
       + 4 x504 + 4 x564 - 19 x624 <= 0
 c125: 4 x25 + 4 x85 + 4 x145 + 4 x205 + 4 x265 + 4 x325 + 4 x385 + 4 x445
       + 4 x505 + 4 x565 - 21 x625 <= 0
 c126: 4 x26 + 4 x86 + 4 x146 + 4 x206 + 4 x266 + 4 x326 + 4 x386 + 4 x446
       + 4 x506 + 4 x566 - 20 x626 <= 0
 c127: 4 x27 + 4 x87 + 4 x147 + 4 x207 + 4 x267 + 4 x327 + 4 x387 + 4 x447
       + 4 x507 + 4 x567 - 22 x627 <= 0
 c128: 4 x28 + 4 x88 + 4 x148 + 4 x208 + 4 x268 + 4 x328 + 4 x388 + 4 x448
       + 4 x508 + 4 x568 - 22 x628 <= 0
 c129: 4 x29 + 4 x89 + 4 x149 + 4 x209 + 4 x269 + 4 x329 + 4 x389 + 4 x449
       + 4 x509 + 4 x569 - 19 x629 <= 0
 c130: 4 x30 + 4 x90 + 4 x150 + 4 x210 + 4 x270 + 4 x330 + 4 x390 + 4 x450
       + 4 x510 + 4 x570 - 20 x630 <= 0
 c131: 4 x31 + 4 x91 + 4 x151 + 4 x211 + 4 x271 + 4 x331 + 4 x391 + 4 x451
       + 4 x511 + 4 x571 - 18 x631 <= 0
 c132: 4 x32 + 4 x92 + 4 x152 + 4 x212 + 4 x272 + 4 x332 + 4 x392 + 4 x452
       + 4 x512 + 4 x572 - 22 x632 <= 0
 c133: 4 x33 + 4 x93 + 4 x153 + 4 x213 + 4 x273 + 4 x333 + 4 x393 + 4 x453
       + 4 x513 + 4 x573 - 18 x633 <= 0
 c134: 4 x34 + 4 x94 + 4 x154 + 4 x214 + 4 x274 + 4 x334 + 4 x394 + 4 x454
       + 4 x514 + 4 x574 - 18 x634 <= 0
 c135: 4 x35 + 4 x95 + 4 x155 + 4 x215 + 4 x275 + 4 x335 + 4 x395 + 4 x455
       + 4 x515 + 4 x575 - 20 x635 <= 0
 c136: 4 x36 + 4 x96 + 4 x156 + 4 x216 + 4 x276 + 4 x336 + 4 x396 + 4 x456
       + 4 x516 + 4 x576 - 21 x636 <= 0
 c137: 4 x37 + 4 x97 + 4 x157 + 4 x217 + 4 x277 + 4 x337 + 4 x397 + 4 x457
       + 4 x517 + 4 x577 - 20 x637 <= 0
 c138: 4 x38 + 4 x98 + 4 x158 + 4 x218 + 4 x278 + 4 x338 + 4 x398 + 4 x458
       + 4 x518 + 4 x578 - 18 x638 <= 0
 c139: 4 x39 + 4 x99 + 4 x159 + 4 x219 + 4 x279 + 4 x339 + 4 x399 + 4 x459
       + 4 x519 + 4 x579 - 20 x639 <= 0
 c140: 4 x40 + 4 x100 + 4 x160 + 4 x220 + 4 x280 + 4 x340 + 4 x400 + 4 x460
       + 4 x520 + 4 x580 - 22 x640 <= 0
 c141: 4 x41 + 4 x101 + 4 x161 + 4 x221 + 4 x281 + 4 x341 + 4 x401 + 4 x461
       + 4 x521 + 4 x581 - 19 x641 <= 0
 c142: 4 x42 + 4 x102 + 4 x162 + 4 x222 + 4 x282 + 4 x342 + 4 x402 + 4 x462
       + 4 x522 + 4 x582 - 19 x642 <= 0
 c143: 4 x43 + 4 x103 + 4 x163 + 4 x223 + 4 x283 + 4 x343 + 4 x403 + 4 x463
       + 4 x523 + 4 x583 - 19 x643 <= 0
 c144: 4 x44 + 4 x104 + 4 x164 + 4 x224 + 4 x284 + 4 x344 + 4 x404 + 4 x464
       + 4 x524 + 4 x584 - 20 x644 <= 0
 c145: 4 x45 + 4 x105 + 4 x165 + 4 x225 + 4 x285 + 4 x345 + 4 x405 + 4 x465
       + 4 x525 + 4 x585 - 19 x645 <= 0
 c146: 4 x46 + 4 x106 + 4 x166 + 4 x226 + 4 x286 + 4 x346 + 4 x406 + 4 x466
       + 4 x526 + 4 x586 - 21 x646 <= 0
 c147: 4 x47 + 4 x107 + 4 x167 + 4 x227 + 4 x287 + 4 x347 + 4 x407 + 4 x467
       + 4 x527 + 4 x587 - 21 x647 <= 0
 c148: 4 x48 + 4 x108 + 4 x168 + 4 x228 + 4 x288 + 4 x348 + 4 x408 + 4 x468
       + 4 x528 + 4 x588 - 19 x648 <= 0
 c149: 4 x49 + 4 x109 + 4 x169 + 4 x229 + 4 x289 + 4 x349 + 4 x409 + 4 x469
       + 4 x529 + 4 x589 - 20 x649 <= 0
 c150: 4 x50 + 4 x110 + 4 x170 + 4 x230 + 4 x290 + 4 x350 + 4 x410 + 4 x470
       + 4 x530 + 4 x590 - 22 x650 <= 0
 c151: 4 x51 + 4 x111 + 4 x171 + 4 x231 + 4 x291 + 4 x351 + 4 x411 + 4 x471
       + 4 x531 + 4 x591 - 19 x651 <= 0
 c152: 4 x52 + 4 x112 + 4 x172 + 4 x232 + 4 x292 + 4 x352 + 4 x412 + 4 x472
       + 4 x532 + 4 x592 - 19 x652 <= 0
 c153: 4 x53 + 4 x113 + 4 x173 + 4 x233 + 4 x293 + 4 x353 + 4 x413 + 4 x473
       + 4 x533 + 4 x593 - 20 x653 <= 0
 c154: 4 x54 + 4 x114 + 4 x174 + 4 x234 + 4 x294 + 4 x354 + 4 x414 + 4 x474
       + 4 x534 + 4 x594 - 20 x654 <= 0
 c155: 4 x55 + 4 x115 + 4 x175 + 4 x235 + 4 x295 + 4 x355 + 4 x415 + 4 x475
       + 4 x535 + 4 x595 - 21 x655 <= 0
 c156: 4 x56 + 4 x116 + 4 x176 + 4 x236 + 4 x296 + 4 x356 + 4 x416 + 4 x476
       + 4 x536 + 4 x596 - 19 x656 <= 0
 c157: 4 x57 + 4 x117 + 4 x177 + 4 x237 + 4 x297 + 4 x357 + 4 x417 + 4 x477
       + 4 x537 + 4 x597 - 21 x657 <= 0
 c158: 4 x58 + 4 x118 + 4 x178 + 4 x238 + 4 x298 + 4 x358 + 4 x418 + 4 x478
       + 4 x538 + 4 x598 - 20 x658 <= 0
 c159: 4 x59 + 4 x119 + 4 x179 + 4 x239 + 4 x299 + 4 x359 + 4 x419 + 4 x479
       + 4 x539 + 4 x599 - 20 x659 <= 0
 c160: 4 x60 + 4 x120 + 4 x180 + 4 x240 + 4 x300 + 4 x360 + 4 x420 + 4 x480
       + 4 x540 + 4 x600 - 23 x660 <= 0
Bounds
 0 <= x1 <= 1
 0 <= x2 <= 1
 0 <= x3 <= 1
 0 <= x4 <= 1
 0 <= x5 <= 1
 0 <= x6 <= 1
 0 <= x7 <= 1
 0 <= x8 <= 1
 0 <= x9 <= 1
 0 <= x10 <= 1
 0 <= x11 <= 1
 0 <= x12 <= 1
 0 <= x13 <= 1
 0 <= x14 <= 1
 0 <= x15 <= 1
 0 <= x16 <= 1
 0 <= x17 <= 1
 0 <= x18 <= 1
 0 <= x19 <= 1
 0 <= x20 <= 1
 0 <= x21 <= 1
 0 <= x22 <= 1
 0 <= x23 <= 1
 0 <= x24 <= 1
 0 <= x25 <= 1
 0 <= x26 <= 1
 0 <= x27 <= 1
 0 <= x28 <= 1
 0 <= x29 <= 1
 0 <= x30 <= 1
 0 <= x31 <= 1
 0 <= x32 <= 1
 0 <= x33 <= 1
 0 <= x34 <= 1
 0 <= x35 <= 1
 0 <= x36 <= 1
 0 <= x37 <= 1
 0 <= x38 <= 1
 0 <= x39 <= 1
 0 <= x40 <= 1
 0 <= x41 <= 1
 0 <= x42 <= 1
 0 <= x43 <= 1
 0 <= x44 <= 1
 0 <= x45 <= 1
 0 <= x46 <= 1
 0 <= x47 <= 1
 0 <= x48 <= 1
 0 <= x49 <= 1
 0 <= x50 <= 1
 0 <= x51 <= 1
 0 <= x52 <= 1
 0 <= x53 <= 1
 0 <= x54 <= 1
 0 <= x55 <= 1
 0 <= x56 <= 1
 0 <= x57 <= 1
 0 <= x58 <= 1
 0 <= x59 <= 1
 0 <= x60 <= 1
 0 <= x61 <= 1
 0 <= x62 <= 1
 0 <= x63 <= 1
 0 <= x64 <= 1
 0 <= x65 <= 1
 0 <= x66 <= 1
 0 <= x67 <= 1
 0 <= x68 <= 1
 0 <= x69 <= 1
 0 <= x70 <= 1
 0 <= x71 <= 1
 0 <= x72 <= 1
 0 <= x73 <= 1
 0 <= x74 <= 1
 0 <= x75 <= 1
 0 <= x76 <= 1
 0 <= x77 <= 1
 0 <= x78 <= 1
 0 <= x79 <= 1
 0 <= x80 <= 1
 0 <= x81 <= 1
 0 <= x82 <= 1
 0 <= x83 <= 1
 0 <= x84 <= 1
 0 <= x85 <= 1
 0 <= x86 <= 1
 0 <= x87 <= 1
 0 <= x88 <= 1
 0 <= x89 <= 1
 0 <= x90 <= 1
 0 <= x91 <= 1
 0 <= x92 <= 1
 0 <= x93 <= 1
 0 <= x94 <= 1
 0 <= x95 <= 1
 0 <= x96 <= 1
 0 <= x97 <= 1
 0 <= x98 <= 1
 0 <= x99 <= 1
 0 <= x100 <= 1
 0 <= x101 <= 1
 0 <= x102 <= 1
 0 <= x103 <= 1
 0 <= x104 <= 1
 0 <= x105 <= 1
 0 <= x106 <= 1
 0 <= x107 <= 1
 0 <= x108 <= 1
 0 <= x109 <= 1
 0 <= x110 <= 1
 0 <= x111 <= 1
 0 <= x112 <= 1
 0 <= x113 <= 1
 0 <= x114 <= 1
 0 <= x115 <= 1
 0 <= x116 <= 1
 0 <= x117 <= 1
 0 <= x118 <= 1
 0 <= x119 <= 1
 0 <= x120 <= 1
 0 <= x121 <= 1
 0 <= x122 <= 1
 0 <= x123 <= 1
 0 <= x124 <= 1
 0 <= x125 <= 1
 0 <= x126 <= 1
 0 <= x127 <= 1
 0 <= x128 <= 1
 0 <= x129 <= 1
 0 <= x130 <= 1
 0 <= x131 <= 1
 0 <= x132 <= 1
 0 <= x133 <= 1
 0 <= x134 <= 1
 0 <= x135 <= 1
 0 <= x136 <= 1
 0 <= x137 <= 1
 0 <= x138 <= 1
 0 <= x139 <= 1
 0 <= x140 <= 1
 0 <= x141 <= 1
 0 <= x142 <= 1
 0 <= x143 <= 1
 0 <= x144 <= 1
 0 <= x145 <= 1
 0 <= x146 <= 1
 0 <= x147 <= 1
 0 <= x148 <= 1
 0 <= x149 <= 1
 0 <= x150 <= 1
 0 <= x151 <= 1
 0 <= x152 <= 1
 0 <= x153 <= 1
 0 <= x154 <= 1
 0 <= x155 <= 1
 0 <= x156 <= 1
 0 <= x157 <= 1
 0 <= x158 <= 1
 0 <= x159 <= 1
 0 <= x160 <= 1
 0 <= x161 <= 1
 0 <= x162 <= 1
 0 <= x163 <= 1
 0 <= x164 <= 1
 0 <= x165 <= 1
 0 <= x166 <= 1
 0 <= x167 <= 1
 0 <= x168 <= 1
 0 <= x169 <= 1
 0 <= x170 <= 1
 0 <= x171 <= 1
 0 <= x172 <= 1
 0 <= x173 <= 1
 0 <= x174 <= 1
 0 <= x175 <= 1
 0 <= x176 <= 1
 0 <= x177 <= 1
 0 <= x178 <= 1
 0 <= x179 <= 1
 0 <= x180 <= 1
 0 <= x181 <= 1
 0 <= x182 <= 1
 0 <= x183 <= 1
 0 <= x184 <= 1
 0 <= x185 <= 1
 0 <= x186 <= 1
 0 <= x187 <= 1
 0 <= x188 <= 1
 0 <= x189 <= 1
 0 <= x190 <= 1
 0 <= x191 <= 1
 0 <= x192 <= 1
 0 <= x193 <= 1
 0 <= x194 <= 1
 0 <= x195 <= 1
 0 <= x196 <= 1
 0 <= x197 <= 1
 0 <= x198 <= 1
 0 <= x199 <= 1
 0 <= x200 <= 1
 0 <= x201 <= 1
 0 <= x202 <= 1
 0 <= x203 <= 1
 0 <= x204 <= 1
 0 <= x205 <= 1
 0 <= x206 <= 1
 0 <= x207 <= 1
 0 <= x208 <= 1
 0 <= x209 <= 1
 0 <= x210 <= 1
 0 <= x211 <= 1
 0 <= x212 <= 1
 0 <= x213 <= 1
 0 <= x214 <= 1
 0 <= x215 <= 1
 0 <= x216 <= 1
 0 <= x217 <= 1
 0 <= x218 <= 1
 0 <= x219 <= 1
 0 <= x220 <= 1
 0 <= x221 <= 1
 0 <= x222 <= 1
 0 <= x223 <= 1
 0 <= x224 <= 1
 0 <= x225 <= 1
 0 <= x226 <= 1
 0 <= x227 <= 1
 0 <= x228 <= 1
 0 <= x229 <= 1
 0 <= x230 <= 1
 0 <= x231 <= 1
 0 <= x232 <= 1
 0 <= x233 <= 1
 0 <= x234 <= 1
 0 <= x235 <= 1
 0 <= x236 <= 1
 0 <= x237 <= 1
 0 <= x238 <= 1
 0 <= x239 <= 1
 0 <= x240 <= 1
 0 <= x241 <= 1
 0 <= x242 <= 1
 0 <= x243 <= 1
 0 <= x244 <= 1
 0 <= x245 <= 1
 0 <= x246 <= 1
 0 <= x247 <= 1
 0 <= x248 <= 1
 0 <= x249 <= 1
 0 <= x250 <= 1
 0 <= x251 <= 1
 0 <= x252 <= 1
 0 <= x253 <= 1
 0 <= x254 <= 1
 0 <= x255 <= 1
 0 <= x256 <= 1
 0 <= x257 <= 1
 0 <= x258 <= 1
 0 <= x259 <= 1
 0 <= x260 <= 1
 0 <= x261 <= 1
 0 <= x262 <= 1
 0 <= x263 <= 1
 0 <= x264 <= 1
 0 <= x265 <= 1
 0 <= x266 <= 1
 0 <= x267 <= 1
 0 <= x268 <= 1
 0 <= x269 <= 1
 0 <= x270 <= 1
 0 <= x271 <= 1
 0 <= x272 <= 1
 0 <= x273 <= 1
 0 <= x274 <= 1
 0 <= x275 <= 1
 0 <= x276 <= 1
 0 <= x277 <= 1
 0 <= x278 <= 1
 0 <= x279 <= 1
 0 <= x280 <= 1
 0 <= x281 <= 1
 0 <= x282 <= 1
 0 <= x283 <= 1
 0 <= x284 <= 1
 0 <= x285 <= 1
 0 <= x286 <= 1
 0 <= x287 <= 1
 0 <= x288 <= 1
 0 <= x289 <= 1
 0 <= x290 <= 1
 0 <= x291 <= 1
 0 <= x292 <= 1
 0 <= x293 <= 1
 0 <= x294 <= 1
 0 <= x295 <= 1
 0 <= x296 <= 1
 0 <= x297 <= 1
 0 <= x298 <= 1
 0 <= x299 <= 1
 0 <= x300 <= 1
 0 <= x301 <= 1
 0 <= x302 <= 1
 0 <= x303 <= 1
 0 <= x304 <= 1
 0 <= x305 <= 1
 0 <= x306 <= 1
 0 <= x307 <= 1
 0 <= x308 <= 1
 0 <= x309 <= 1
 0 <= x310 <= 1
 0 <= x311 <= 1
 0 <= x312 <= 1
 0 <= x313 <= 1
 0 <= x314 <= 1
 0 <= x315 <= 1
 0 <= x316 <= 1
 0 <= x317 <= 1
 0 <= x318 <= 1
 0 <= x319 <= 1
 0 <= x320 <= 1
 0 <= x321 <= 1
 0 <= x322 <= 1
 0 <= x323 <= 1
 0 <= x324 <= 1
 0 <= x325 <= 1
 0 <= x326 <= 1
 0 <= x327 <= 1
 0 <= x328 <= 1
 0 <= x329 <= 1
 0 <= x330 <= 1
 0 <= x331 <= 1
 0 <= x332 <= 1
 0 <= x333 <= 1
 0 <= x334 <= 1
 0 <= x335 <= 1
 0 <= x336 <= 1
 0 <= x337 <= 1
 0 <= x338 <= 1
 0 <= x339 <= 1
 0 <= x340 <= 1
 0 <= x341 <= 1
 0 <= x342 <= 1
 0 <= x343 <= 1
 0 <= x344 <= 1
 0 <= x345 <= 1
 0 <= x346 <= 1
 0 <= x347 <= 1
 0 <= x348 <= 1
 0 <= x349 <= 1
 0 <= x350 <= 1
 0 <= x351 <= 1
 0 <= x352 <= 1
 0 <= x353 <= 1
 0 <= x354 <= 1
 0 <= x355 <= 1
 0 <= x356 <= 1
 0 <= x357 <= 1
 0 <= x358 <= 1
 0 <= x359 <= 1
 0 <= x360 <= 1
 0 <= x361 <= 1
 0 <= x362 <= 1
 0 <= x363 <= 1
 0 <= x364 <= 1
 0 <= x365 <= 1
 0 <= x366 <= 1
 0 <= x367 <= 1
 0 <= x368 <= 1
 0 <= x369 <= 1
 0 <= x370 <= 1
 0 <= x371 <= 1
 0 <= x372 <= 1
 0 <= x373 <= 1
 0 <= x374 <= 1
 0 <= x375 <= 1
 0 <= x376 <= 1
 0 <= x377 <= 1
 0 <= x378 <= 1
 0 <= x379 <= 1
 0 <= x380 <= 1
 0 <= x381 <= 1
 0 <= x382 <= 1
 0 <= x383 <= 1
 0 <= x384 <= 1
 0 <= x385 <= 1
 0 <= x386 <= 1
 0 <= x387 <= 1
 0 <= x388 <= 1
 0 <= x389 <= 1
 0 <= x390 <= 1
 0 <= x391 <= 1
 0 <= x392 <= 1
 0 <= x393 <= 1
 0 <= x394 <= 1
 0 <= x395 <= 1
 0 <= x396 <= 1
 0 <= x397 <= 1
 0 <= x398 <= 1
 0 <= x399 <= 1
 0 <= x400 <= 1
 0 <= x401 <= 1
 0 <= x402 <= 1
 0 <= x403 <= 1
 0 <= x404 <= 1
 0 <= x405 <= 1
 0 <= x406 <= 1
 0 <= x407 <= 1
 0 <= x408 <= 1
 0 <= x409 <= 1
 0 <= x410 <= 1
 0 <= x411 <= 1
 0 <= x412 <= 1
 0 <= x413 <= 1
 0 <= x414 <= 1
 0 <= x415 <= 1
 0 <= x416 <= 1
 0 <= x417 <= 1
 0 <= x418 <= 1
 0 <= x419 <= 1
 0 <= x420 <= 1
 0 <= x421 <= 1
 0 <= x422 <= 1
 0 <= x423 <= 1
 0 <= x424 <= 1
 0 <= x425 <= 1
 0 <= x426 <= 1
 0 <= x427 <= 1
 0 <= x428 <= 1
 0 <= x429 <= 1
 0 <= x430 <= 1
 0 <= x431 <= 1
 0 <= x432 <= 1
 0 <= x433 <= 1
 0 <= x434 <= 1
 0 <= x435 <= 1
 0 <= x436 <= 1
 0 <= x437 <= 1
 0 <= x438 <= 1
 0 <= x439 <= 1
 0 <= x440 <= 1
 0 <= x441 <= 1
 0 <= x442 <= 1
 0 <= x443 <= 1
 0 <= x444 <= 1
 0 <= x445 <= 1
 0 <= x446 <= 1
 0 <= x447 <= 1
 0 <= x448 <= 1
 0 <= x449 <= 1
 0 <= x450 <= 1
 0 <= x451 <= 1
 0 <= x452 <= 1
 0 <= x453 <= 1
 0 <= x454 <= 1
 0 <= x455 <= 1
 0 <= x456 <= 1
 0 <= x457 <= 1
 0 <= x458 <= 1
 0 <= x459 <= 1
 0 <= x460 <= 1
 0 <= x461 <= 1
 0 <= x462 <= 1
 0 <= x463 <= 1
 0 <= x464 <= 1
 0 <= x465 <= 1
 0 <= x466 <= 1
 0 <= x467 <= 1
 0 <= x468 <= 1
 0 <= x469 <= 1
 0 <= x470 <= 1
 0 <= x471 <= 1
 0 <= x472 <= 1
 0 <= x473 <= 1
 0 <= x474 <= 1
 0 <= x475 <= 1
 0 <= x476 <= 1
 0 <= x477 <= 1
 0 <= x478 <= 1
 0 <= x479 <= 1
 0 <= x480 <= 1
 0 <= x481 <= 1
 0 <= x482 <= 1
 0 <= x483 <= 1
 0 <= x484 <= 1
 0 <= x485 <= 1
 0 <= x486 <= 1
 0 <= x487 <= 1
 0 <= x488 <= 1
 0 <= x489 <= 1
 0 <= x490 <= 1
 0 <= x491 <= 1
 0 <= x492 <= 1
 0 <= x493 <= 1
 0 <= x494 <= 1
 0 <= x495 <= 1
 0 <= x496 <= 1
 0 <= x497 <= 1
 0 <= x498 <= 1
 0 <= x499 <= 1
 0 <= x500 <= 1
 0 <= x501 <= 1
 0 <= x502 <= 1
 0 <= x503 <= 1
 0 <= x504 <= 1
 0 <= x505 <= 1
 0 <= x506 <= 1
 0 <= x507 <= 1
 0 <= x508 <= 1
 0 <= x509 <= 1
 0 <= x510 <= 1
 0 <= x511 <= 1
 0 <= x512 <= 1
 0 <= x513 <= 1
 0 <= x514 <= 1
 0 <= x515 <= 1
 0 <= x516 <= 1
 0 <= x517 <= 1
 0 <= x518 <= 1
 0 <= x519 <= 1
 0 <= x520 <= 1
 0 <= x521 <= 1
 0 <= x522 <= 1
 0 <= x523 <= 1
 0 <= x524 <= 1
 0 <= x525 <= 1
 0 <= x526 <= 1
 0 <= x527 <= 1
 0 <= x528 <= 1
 0 <= x529 <= 1
 0 <= x530 <= 1
 0 <= x531 <= 1
 0 <= x532 <= 1
 0 <= x533 <= 1
 0 <= x534 <= 1
 0 <= x535 <= 1
 0 <= x536 <= 1
 0 <= x537 <= 1
 0 <= x538 <= 1
 0 <= x539 <= 1
 0 <= x540 <= 1
 0 <= x541 <= 1
 0 <= x542 <= 1
 0 <= x543 <= 1
 0 <= x544 <= 1
 0 <= x545 <= 1
 0 <= x546 <= 1
 0 <= x547 <= 1
 0 <= x548 <= 1
 0 <= x549 <= 1
 0 <= x550 <= 1
 0 <= x551 <= 1
 0 <= x552 <= 1
 0 <= x553 <= 1
 0 <= x554 <= 1
 0 <= x555 <= 1
 0 <= x556 <= 1
 0 <= x557 <= 1
 0 <= x558 <= 1
 0 <= x559 <= 1
 0 <= x560 <= 1
 0 <= x561 <= 1
 0 <= x562 <= 1
 0 <= x563 <= 1
 0 <= x564 <= 1
 0 <= x565 <= 1
 0 <= x566 <= 1
 0 <= x567 <= 1
 0 <= x568 <= 1
 0 <= x569 <= 1
 0 <= x570 <= 1
 0 <= x571 <= 1
 0 <= x572 <= 1
 0 <= x573 <= 1
 0 <= x574 <= 1
 0 <= x575 <= 1
 0 <= x576 <= 1
 0 <= x577 <= 1
 0 <= x578 <= 1
 0 <= x579 <= 1
 0 <= x580 <= 1
 0 <= x581 <= 1
 0 <= x582 <= 1
 0 <= x583 <= 1
 0 <= x584 <= 1
 0 <= x585 <= 1
 0 <= x586 <= 1
 0 <= x587 <= 1
 0 <= x588 <= 1
 0 <= x589 <= 1
 0 <= x590 <= 1
 0 <= x591 <= 1
 0 <= x592 <= 1
 0 <= x593 <= 1
 0 <= x594 <= 1
 0 <= x595 <= 1
 0 <= x596 <= 1
 0 <= x597 <= 1
 0 <= x598 <= 1
 0 <= x599 <= 1
 0 <= x600 <= 1
 0 <= x601 <= 1
 0 <= x602 <= 1
 0 <= x603 <= 1
 0 <= x604 <= 1
 0 <= x605 <= 1
 0 <= x606 <= 1
 0 <= x607 <= 1
 0 <= x608 <= 1
 0 <= x609 <= 1
 0 <= x610 <= 1
 0 <= x611 <= 1
 0 <= x612 <= 1
 0 <= x613 <= 1
 0 <= x614 <= 1
 0 <= x615 <= 1
 0 <= x616 <= 1
 0 <= x617 <= 1
 0 <= x618 <= 1
 0 <= x619 <= 1
 0 <= x620 <= 1
 0 <= x621 <= 1
 0 <= x622 <= 1
 0 <= x623 <= 1
 0 <= x624 <= 1
 0 <= x625 <= 1
 0 <= x626 <= 1
 0 <= x627 <= 1
 0 <= x628 <= 1
 0 <= x629 <= 1
 0 <= x630 <= 1
 0 <= x631 <= 1
 0 <= x632 <= 1
 0 <= x633 <= 1
 0 <= x634 <= 1
 0 <= x635 <= 1
 0 <= x636 <= 1
 0 <= x637 <= 1
 0 <= x638 <= 1
 0 <= x639 <= 1
 0 <= x640 <= 1
 0 <= x641 <= 1
 0 <= x642 <= 1
 0 <= x643 <= 1
 0 <= x644 <= 1
 0 <= x645 <= 1
 0 <= x646 <= 1
 0 <= x647 <= 1
 0 <= x648 <= 1
 0 <= x649 <= 1
 0 <= x650 <= 1
 0 <= x651 <= 1
 0 <= x652 <= 1
 0 <= x653 <= 1
 0 <= x654 <= 1
 0 <= x655 <= 1
 0 <= x656 <= 1
 0 <= x657 <= 1
 0 <= x658 <= 1
 0 <= x659 <= 1
 0 <= x660 <= 1
Binaries
 x601  x602  x603  x604  x605  x606  x607  x608  x609  x610  x611  x612  x613 
 x614  x615  x616  x617  x618  x619  x620  x621  x622  x623  x624  x625  x626 
 x627  x628  x629  x630  x631  x632  x633  x634  x635  x636  x637  x638  x639 
 x640  x641  x642  x643  x644  x645  x646  x647  x648  x649  x650  x651  x652 
 x653  x654  x655  x656  x657  x658  x659  x660 
End
